 200 67 
 8 1 12 99 3 57 84 71 37 29 43 24 
 68 31 100 30 18 89 4 72 91 74 57 74 
 82 48 89 48 83 100 69 72 86 78 38 26 
 2 96 70 21 30 63 50 56 19 43 85 13 
 1 77 40 3 97 79 63 57 19 19 55 57 
 66 23 74 22 57 86 60 
 37 
 2 3 4 8 9 10 11 14 16 18 20 21 
 22 27 28 29 32 33 35 43 44 45 46 48 
 50 51 52 55 56 57 59 61 62 63 64 66 
 67 
 65 
 1 2 3 4 5 6 7 8 9 10 11 12 
 13 14 15 16 17 18 19 20 21 22 23 24 
 25 26 27 29 30 31 32 33 34 35 36 37 
 38 39 40 41 42 43 44 45 47 48 49 50 
 51 52 53 54 55 56 57 58 59 60 61 62 
 63 64 65 66 67 
 63 
 1 2 3 4 5 6 7 8 9 10 11 12 
 13 14 15 16 17 18 19 21 22 23 24 25 
 26 27 28 29 30 31 33 34 35 36 38 39 
 40 41 42 43 44 45 46 47 48 49 51 52 
 53 54 55 56 57 58 59 60 61 62 63 64 
 65 66 67 
 18 
 2 4 7 15 18 19 21 22 23 27 30 39 
 41 43 46 54 57 60 
 7 
 19 23 26 34 45 53 64 
 54 
 1 2 4 5 6 8 9 10 11 12 13 14 
 15 16 18 20 21 23 24 25 26 27 29 30 
 31 32 34 35 37 38 41 42 43 44 45 46 
 47 48 49 50 52 53 54 55 56 57 58 59 
 60 61 62 64 65 66 
 22 
 1 2 13 14 15 16 17 19 22 27 29 38 
 41 43 54 55 57 59 60 61 62 64 
 41 
 1 2 4 8 9 10 13 14 18 19 20 25 
 27 29 30 31 32 34 35 36 37 38 40 41 
 42 46 47 48 49 51 52 53 55 57 58 59 
 60 61 63 65 67 
 19 
 3 7 10 14 16 21 23 24 25 27 29 42 
 43 48 52 56 57 64 66 
 5 
 6 10 20 51 56 
 64 
 1 2 3 4 5 6 7 8 9 10 11 12 
 15 16 17 18 19 20 21 22 23 24 25 26 
 27 28 29 30 31 32 33 34 35 36 37 38 
 39 40 41 42 43 44 45 46 47 49 50 51 
 52 53 54 55 56 57 58 59 60 61 62 63 
 64 65 66 67 
 35 
 1 2 4 5 7 9 10 15 18 19 20 21 
 22 26 27 29 30 33 35 37 38 40 41 44 
 48 49 50 52 54 57 61 62 64 65 67 
 57 
 1 2 3 4 5 6 7 8 9 10 11 12 
 13 14 15 16 18 19 21 23 24 25 26 28 
 30 31 32 33 34 36 37 38 39 40 41 42 
 43 44 45 46 47 48 49 50 51 52 55 56 
 57 58 59 60 62 63 64 65 67 
 45 
 2 3 4 6 10 11 13 14 15 16 17 18 
 19 22 25 27 29 30 32 34 35 36 37 38 
 39 40 41 42 44 45 46 47 51 52 53 54 
 55 56 58 60 61 63 64 65 67 
 23 
 1 5 6 7 12 15 16 18 19 20 23 28 
 38 39 46 48 49 51 59 60 61 63 67 
 28 
 2 3 5 6 10 12 13 14 15 20 22 24 
 25 28 30 31 33 39 47 49 50 52 54 56 
 59 62 65 66 
 43 
 1 2 3 4 7 8 9 10 14 16 17 20 
 21 23 25 26 31 33 34 35 36 37 38 40 
 42 43 44 46 47 48 50 51 52 53 54 57 
 58 59 60 63 64 65 66 
 38 
 4 5 6 7 8 10 11 12 16 18 22 24 
 25 26 29 30 35 37 38 39 40 41 42 45 
 46 47 50 51 53 55 56 57 60 61 64 65 
 66 67 
 16 
 3 6 10 12 18 22 23 27 28 30 31 32 
 34 42 46 63 
 56 
 1 2 4 5 6 7 8 9 10 11 12 13 
 14 16 17 18 19 20 22 23 25 28 29 30 
 31 32 33 34 35 36 37 38 39 41 42 43 
 44 45 46 47 48 49 50 51 52 54 55 56 
 57 58 59 60 61 63 64 65 
 61 
 1 2 4 5 6 9 11 12 13 14 15 16 
 17 18 19 20 21 22 23 24 25 27 28 29 
 31 32 33 34 35 36 37 38 39 40 41 42 
 43 44 45 46 47 48 49 50 51 52 53 54 
 55 56 57 58 59 60 61 62 63 64 65 66 
 67 
 34 
 1 5 6 7 9 10 12 14 19 20 22 23 
 25 27 28 30 33 34 35 36 39 41 43 45 
 47 49 51 53 55 56 59 61 62 64 
 59 
 1 3 4 6 7 8 9 10 11 12 13 14 
 16 18 19 20 21 22 23 24 25 27 28 29 
 30 31 32 33 34 35 36 37 38 39 40 41 
 43 44 45 46 47 48 49 51 52 53 54 55 
 56 57 58 59 60 61 62 63 65 66 67 
 41 
 1 2 3 4 5 8 9 10 12 13 14 16 
 17 18 21 22 23 24 25 29 32 33 34 36 
 39 42 44 45 46 47 48 51 52 53 54 56 
 57 59 62 64 67 
 52 
 2 4 5 6 7 8 10 11 13 14 15 16 
 17 18 19 20 21 22 23 24 26 27 28 29 
 33 35 36 38 40 41 42 44 46 47 48 49 
 50 51 52 53 54 55 56 57 58 59 60 62 
 63 65 66 67 
 43 
 1 4 5 6 7 10 12 15 16 17 18 20 
 24 25 26 29 30 31 34 37 38 40 41 42 
 43 44 46 47 49 50 51 52 53 54 55 56 
 57 58 61 62 63 66 67 
 62 
 1 2 3 4 5 7 9 10 11 12 13 14 
 15 16 17 18 19 20 21 23 24 25 26 27 
 28 29 30 31 32 33 34 35 36 37 38 39 
 40 41 42 43 44 45 46 47 48 50 51 53 
 54 55 56 57 58 59 60 61 62 63 64 65 
 66 67 
 59 
 1 2 3 4 6 7 8 9 10 11 12 13 
 14 15 17 18 20 21 22 23 24 25 26 27 
 28 29 30 31 32 33 34 35 36 37 38 39 
 40 42 43 44 46 47 48 49 50 52 53 54 
 55 56 57 58 59 61 62 63 65 66 67 
 67 
 1 2 3 4 5 6 7 8 9 10 11 12 
 13 14 15 16 17 18 19 20 21 22 23 24 
 25 26 27 28 29 30 31 32 33 34 35 36 
 37 38 39 40 41 42 43 44 45 46 47 48 
 49 50 51 52 53 54 55 56 57 58 59 60 
 61 62 63 64 65 66 67 
 39 
 1 2 3 7 10 11 12 17 18 19 21 22 
 23 25 29 30 31 33 34 36 37 38 39 43 
 45 46 49 50 51 53 54 55 56 57 58 61 
 62 64 66 
 54 
 1 2 4 5 6 8 9 10 11 12 13 14 
 16 17 18 19 20 21 23 24 25 26 27 28 
 29 30 31 32 33 34 35 36 38 39 40 44 
 45 46 47 48 49 50 51 52 53 54 55 57 
 58 59 60 62 63 66 
 43 
 1 2 5 8 12 14 19 20 21 22 23 24 
 25 27 32 33 34 35 36 37 38 39 41 42 
 43 45 46 47 48 50 53 54 55 56 58 59 
 60 61 62 63 64 65 67 
 26 
 1 2 9 11 12 16 19 20 21 22 24 25 
 26 28 32 35 39 41 42 45 46 50 54 57 
 58 67 
 37 
 3 4 6 7 10 12 13 14 15 16 17 18 
 19 21 25 29 33 34 35 36 37 40 41 42 
 43 44 46 48 50 51 52 53 58 61 63 64 
 65 
 42 
 2 4 6 7 8 9 10 12 16 18 19 20 
 21 23 24 25 26 27 28 29 30 31 32 33 
 34 35 36 39 40 42 48 50 51 52 57 58 
 59 60 61 63 66 67 
 27 
 1 2 7 8 9 10 11 13 15 17 18 21 
 24 26 30 33 34 36 37 42 43 45 49 51 
 57 58 64 
 56 
 1 2 3 4 5 6 7 8 9 10 11 12 
 13 14 15 16 20 21 22 23 24 25 26 28 
 29 30 31 32 33 34 35 36 37 38 41 42 
 43 44 45 46 47 48 49 51 52 54 55 56 
 57 60 61 62 63 64 66 67 
 53 
 1 3 4 5 6 7 9 10 11 13 14 16 
 17 18 19 20 21 22 23 24 25 26 27 28 
 30 31 32 34 36 37 38 39 41 44 45 46 
 47 48 49 50 51 52 53 55 56 57 59 60 
 61 62 64 66 67 
 26 
 1 6 8 9 10 11 14 15 17 18 23 26 
 34 36 37 38 41 42 47 52 54 55 58 60 
 62 63 
 14 
 5 11 17 23 25 28 37 42 43 46 49 53 
 59 60 
 11 
 12 13 16 21 25 30 31 35 37 63 66 
 33 
 3 5 9 11 12 14 15 19 23 24 26 27 
 28 30 31 33 35 36 37 38 39 41 42 45 
 47 49 53 54 55 59 60 62 63 
 28 
 3 4 7 9 10 11 14 15 19 21 22 24 
 26 29 30 31 33 34 36 38 41 45 48 56 
 57 63 64 67 
 18 
 1 7 10 12 16 23 25 28 31 37 41 45 
 46 49 53 58 59 67 
 55 
 1 3 5 6 7 8 9 10 13 14 15 16 
 17 18 19 20 21 22 23 24 25 26 27 29 
 30 32 33 34 35 37 39 40 41 42 43 44 
 45 46 47 48 49 50 51 52 56 57 58 59 
 60 61 62 63 64 65 66 
 31 
 1 2 5 6 7 9 12 14 16 17 18 20 
 21 23 25 26 34 36 38 42 47 52 53 54 
 55 56 58 61 64 65 67 
 35 
 1 3 4 5 6 7 8 9 10 13 15 16 
 18 21 23 24 26 33 34 36 40 43 44 46 
 52 53 54 56 57 58 59 61 62 64 66 
 30 
 2 7 9 10 11 14 15 16 17 18 19 20 
 26 27 32 33 34 35 39 40 43 47 50 51 
 53 54 58 60 64 67 
 53 
 1 2 4 5 6 7 8 9 10 11 12 13 
 14 16 17 18 19 20 21 22 23 26 27 33 
 34 35 36 37 38 39 40 41 43 45 46 47 
 48 50 51 52 53 54 55 56 57 58 59 61 
 63 64 65 66 67 
 26 
 3 4 8 9 12 14 15 18 21 22 24 26 
 29 35 37 38 42 44 47 51 52 58 60 63 
 65 66 
 48 
 1 3 4 5 8 9 11 13 14 15 19 20 
 21 22 23 24 25 27 29 30 33 34 35 36 
 37 38 41 42 44 45 46 49 51 52 53 54 
 56 57 58 59 60 61 62 63 64 65 66 67 
 19 
 2 3 10 11 13 20 21 23 26 29 30 31 
 38 41 43 47 49 55 66 
 12 
 17 19 22 24 25 26 28 36 38 50 51 55 
 23 
 1 3 4 15 20 23 24 25 30 31 33 37 
 40 43 45 52 54 57 58 59 60 62 63 
 19 
 4 8 10 14 15 17 18 20 23 36 37 39 
 48 56 58 60 61 63 65 
 23 
 2 3 5 12 17 18 19 20 21 24 25 26 
 28 32 36 42 45 46 49 55 56 59 62 
 8 
 20 22 38 39 40 45 46 47 
 37 
 2 4 6 7 8 9 10 13 14 15 16 18 
 20 22 23 29 31 32 33 35 36 37 38 39 
 40 43 44 46 48 52 53 54 57 59 62 64 
 65 
 57 
 1 2 3 4 5 6 8 9 10 11 13 14 
 15 16 17 18 19 20 21 23 27 28 29 30 
 33 34 35 36 37 38 39 40 41 42 43 44 
 46 47 48 49 50 51 52 53 54 55 56 57 
 58 59 60 61 62 63 64 65 66 
 12 
 1 4 11 14 17 19 24 38 50 53 60 65 
 53 
 1 2 3 5 6 7 8 9 10 11 14 16 
 18 20 21 22 23 24 25 26 27 28 29 30 
 31 32 33 34 37 38 39 40 41 42 43 44 
 46 47 48 49 50 51 53 54 55 57 58 60 
 61 62 63 65 66 
 32 
 2 3 4 13 14 15 18 21 23 25 27 30 
 31 33 34 37 38 39 40 46 48 50 51 54 
 55 56 57 58 59 60 64 66 
 8 
 1 3 4 6 24 27 59 63 
 44 
 4 5 7 8 9 10 11 12 13 16 17 18 
 19 20 22 23 24 26 28 29 31 34 36 37 
 39 40 41 42 43 44 48 49 51 52 53 56 
 57 58 59 60 61 62 64 65 
 44 
 2 3 4 5 6 7 9 10 12 13 14 17 
 19 20 25 27 29 30 31 32 34 35 36 37 
 38 39 41 42 43 46 48 49 50 51 53 54 
 55 56 58 59 60 61 64 65 
 2 
 10 34 
 64 
 1 2 3 4 5 6 7 8 9 10 11 12 
 14 15 16 17 18 19 20 21 22 23 24 25 
 26 27 28 29 30 31 32 33 34 35 36 37 
 38 39 40 41 42 43 44 45 46 47 48 50 
 51 52 53 54 55 56 57 58 59 61 62 63 
 64 65 66 67 
 39 
 4 5 6 8 10 11 12 14 15 16 17 18 
 19 20 24 25 26 27 28 32 36 38 39 40 
 45 46 47 50 53 55 56 58 59 61 62 64 
 65 66 67 
 25 
 1 3 4 6 8 9 10 11 19 22 24 30 
 32 36 42 46 52 54 56 58 59 60 61 63 
 64 
 32 
 1 6 8 10 11 12 15 20 22 23 26 28 
 29 30 31 33 37 38 39 41 42 45 52 54 
 55 58 61 63 64 65 66 67 
 2 
 5 49 
 13 
 1 4 6 9 14 17 20 25 33 37 56 60 
 65 
 47 
 1 2 3 4 5 6 7 8 9 11 12 13 
 14 16 18 19 20 21 22 23 26 27 28 29 
 30 31 33 35 37 43 44 45 47 49 50 51 
 54 55 57 58 59 60 61 63 64 66 67 
 6 
 1 5 6 44 48 63 
 63 
 1 2 3 4 5 6 7 8 9 10 11 12 
 13 14 15 17 18 19 20 21 22 23 24 25 
 26 27 28 29 30 31 32 33 34 35 36 37 
 38 39 40 41 42 43 44 45 46 47 48 49 
 50 51 52 53 55 56 57 58 59 60 62 63 
 64 66 67 
 5 
 10 41 45 49 61 
 10 
 3 4 24 28 33 36 39 41 43 65 
 8 
 16 20 32 33 36 47 58 60 
 16 
 8 13 14 20 22 23 28 31 35 45 48 52 
 53 59 62 63 
 46 
 1 3 4 6 7 10 12 15 17 18 20 21 
 24 25 27 28 29 31 32 33 35 36 37 38 
 39 41 43 44 45 46 47 49 50 52 53 54 
 57 58 59 61 62 63 64 65 66 67 
 5 
 21 28 37 38 61 
 21 
 1 12 14 17 18 20 24 29 34 35 39 41 
 42 43 49 53 55 56 61 63 65 
 23 
 3 4 5 7 9 18 20 21 22 23 27 30 
 35 39 40 44 45 47 48 50 52 55 57 
 61 
 1 2 3 4 5 9 10 11 12 13 14 15 
 16 17 18 19 20 21 22 23 24 25 26 27 
 28 29 30 31 32 34 35 36 37 38 40 41 
 42 43 45 46 47 48 49 50 51 52 53 54 
 55 56 57 58 59 60 61 62 63 64 65 66 
 67 
 29 
 1 3 4 10 11 13 17 19 20 21 25 27 
 28 30 34 35 36 37 42 44 46 47 51 52 
 55 56 58 63 64 
 52 
 2 3 4 5 6 7 8 13 14 15 16 17 
 18 19 21 22 24 25 26 27 28 30 31 32 
 35 36 37 38 40 41 42 43 44 45 46 48 
 49 50 51 52 54 55 56 57 58 60 61 62 
 63 65 66 67 
 49 
 5 8 9 10 11 12 13 14 15 17 18 19 
 20 21 22 23 27 28 29 30 31 32 34 35 
 36 37 38 40 41 42 43 44 45 47 48 49 
 50 51 55 56 57 58 59 60 61 63 64 65 
 67 
 31 
 5 10 11 12 16 17 19 20 22 23 24 25 
 26 27 28 31 33 35 37 44 48 51 53 54 
 55 59 62 64 65 66 67 
 11 
 6 11 20 27 31 43 45 50 53 54 56 
 60 
 1 2 3 4 5 6 7 9 10 11 12 13 
 14 15 16 17 18 19 20 22 23 25 26 28 
 29 30 31 32 33 34 35 36 37 38 39 40 
 41 42 43 44 45 46 48 49 50 51 52 53 
 54 55 56 57 58 59 60 61 62 64 65 66 
 9 
 15 17 18 19 30 31 33 48 67 
 29 
 2 4 5 8 9 15 16 17 20 22 23 24 
 25 27 31 35 37 40 42 47 48 49 53 56 
 58 59 61 62 67 
 12 
 15 17 23 35 37 41 45 49 58 62 66 67 
 43 
 1 3 4 5 8 9 10 11 12 13 15 16 
 17 20 23 24 27 28 29 30 32 33 34 36 
 37 38 39 40 43 46 49 51 52 54 56 59 
 60 61 62 63 65 66 67 
 67 
 1 2 3 4 5 6 7 8 9 10 11 12 
 13 14 15 16 17 18 19 20 21 22 23 24 
 25 26 27 28 29 30 31 32 33 34 35 36 
 37 38 39 40 41 42 43 44 45 46 47 48 
 49 50 51 52 53 54 55 56 57 58 59 60 
 61 62 63 64 65 66 67 
 44 
 1 3 4 5 6 9 10 12 13 14 16 17 
 18 20 21 22 24 25 26 27 28 30 31 32 
 33 35 36 37 38 40 41 42 43 44 47 52 
 53 55 56 57 60 61 64 66 
 35 
 2 7 9 11 12 13 14 15 16 17 18 19 
 20 23 24 32 33 35 36 37 43 44 45 47 
 49 50 52 55 57 59 60 63 64 65 67 
 48 
 2 3 4 5 6 8 9 10 13 14 15 16 
 17 18 20 21 22 23 28 29 30 33 34 35 
 36 37 38 41 42 43 45 46 48 49 50 51 
 52 53 56 57 59 60 61 62 63 65 66 67 
 7 
 13 19 24 42 44 47 57 
 56 
 2 3 4 5 6 7 10 11 13 14 15 16 
 17 19 20 21 22 23 24 25 26 29 30 31 
 32 33 34 35 36 37 39 40 41 42 43 44 
 45 46 47 48 49 50 51 53 54 55 56 57 
 58 59 61 62 64 65 66 67 
 43 
 1 2 4 5 7 8 9 10 11 15 18 20 
 21 23 24 29 30 31 34 37 38 39 40 42 
 43 45 47 48 49 50 51 52 53 54 56 59 
 60 62 63 64 65 66 67 
 15 
 2 4 8 14 15 23 30 33 35 38 42 46 
 47 49 54 
 42 
 1 2 3 4 5 6 9 12 13 14 16 17 
 18 20 22 23 24 25 27 28 30 35 39 41 
 42 43 44 45 46 48 49 50 53 54 55 56 
 59 61 62 63 65 66 
 58 
 1 2 3 4 6 7 8 9 10 11 12 13 
 14 16 17 18 20 21 22 23 26 27 28 30 
 31 32 33 34 35 36 37 38 39 40 41 42 
 43 44 45 46 47 48 49 51 52 53 54 55 
 56 57 58 59 60 62 63 64 66 67 
 4 
 3 4 13 45 
 42 
 3 4 5 6 7 8 11 12 13 14 15 16 
 18 19 21 26 27 30 31 34 35 36 38 39 
 40 42 43 44 45 46 48 49 50 51 52 53 
 56 57 59 60 65 67 
 12 
 4 8 11 13 14 16 24 33 56 60 65 67 
 39 
 2 6 9 10 12 14 16 18 22 23 25 26 
 27 28 30 31 32 34 35 37 38 40 41 43 
 44 45 46 48 49 50 52 54 55 56 58 59 
 60 63 66 
 17 
 5 7 13 16 18 24 25 27 30 33 44 47 
 53 56 61 62 67 
 32 
 3 5 9 10 12 13 17 18 19 24 25 28 
 31 32 33 34 36 37 38 41 45 46 51 52 
 55 56 57 58 60 61 62 65 
 60 
 1 2 4 5 7 8 9 10 11 12 13 14 
 15 16 17 18 19 20 21 22 23 24 26 27 
 28 29 30 31 32 33 34 36 37 38 39 40 
 41 42 44 45 46 47 48 49 50 51 52 54 
 56 57 58 59 60 61 62 63 64 65 66 67 
 38 
 1 2 3 4 6 8 9 11 12 14 15 20 
 22 23 24 26 30 31 32 33 36 37 38 40 
 44 45 46 47 48 52 54 55 57 60 61 63 
 64 67 
 7 
 10 19 31 32 33 34 35 
 39 
 2 5 8 10 11 12 13 16 17 18 20 22 
 23 26 28 30 31 32 33 35 36 38 39 40 
 42 43 44 45 47 56 57 59 61 62 63 64 
 65 66 67 
 35 
 1 2 3 7 8 10 11 12 16 17 18 20 
 21 22 25 28 32 33 34 35 36 40 42 45 
 50 51 52 53 56 57 58 59 61 64 67 
 51 
 1 2 3 4 5 6 7 8 9 10 11 13 
 14 15 18 19 21 22 23 24 27 28 29 30 
 31 32 34 35 36 37 38 40 42 47 48 50 
 52 53 54 55 56 58 59 60 61 62 63 64 
 65 66 67 
 39 
 1 5 7 8 9 10 12 13 14 15 19 20 
 22 23 24 25 27 28 29 30 32 33 35 37 
 38 40 41 45 48 50 52 54 57 58 62 63 
 65 66 67 
 12 
 7 15 29 36 39 48 52 54 56 59 61 63 
 13 
 4 6 12 14 15 18 21 24 36 43 45 63 
 64 
 8 
 24 28 31 40 43 49 55 58 
 36 
 1 3 5 6 11 13 15 16 17 20 22 23 
 24 29 30 32 36 37 38 39 41 42 43 44 
 45 48 49 52 53 55 57 58 61 63 65 66 
 39 
 1 2 3 4 5 8 10 11 13 14 16 17 
 18 19 20 21 23 24 32 33 37 39 41 42 
 43 45 47 49 50 51 52 53 54 55 59 60 
 61 62 67 
 54 
 2 4 5 6 7 8 9 10 11 12 14 15 
 16 17 18 19 20 21 22 24 25 26 27 30 
 31 32 33 35 36 37 38 39 40 42 43 44 
 45 48 49 50 52 54 55 56 57 58 59 60 
 61 62 63 65 66 67 
 25 
 2 3 8 11 12 18 23 24 27 28 29 32 
 35 37 38 44 45 47 48 50 54 57 58 61 
 63 
 65 
 1 2 3 4 5 6 7 8 9 10 11 12 
 13 14 15 16 17 18 19 20 21 22 23 24 
 25 26 27 28 29 30 31 32 33 34 35 36 
 38 39 40 41 42 43 44 46 47 48 49 50 
 51 52 53 54 55 56 57 58 59 60 61 62 
 63 64 65 66 67 
 42 
 4 5 6 7 8 9 10 15 16 18 19 20 
 22 25 26 27 28 31 33 34 36 38 39 41 
 42 45 46 47 48 49 50 51 53 54 55 56 
 58 61 62 65 66 67 
 4 
 25 28 29 35 
 2 
 19 38 
 44 
 1 2 3 4 7 9 11 12 16 17 18 19 
 20 21 22 23 26 27 28 29 30 31 32 33 
 36 38 39 41 43 44 45 46 47 49 50 52 
 54 55 56 58 59 63 64 65 
 7 
 7 30 52 57 60 63 67 
 53 
 1 3 4 5 6 7 9 10 11 12 13 14 
 15 16 17 18 19 20 21 22 23 24 25 26 
 28 29 30 31 32 33 35 37 38 39 40 42 
 43 44 45 47 50 52 53 54 55 56 58 59 
 62 63 65 66 67 
 54 
 1 2 3 4 5 6 7 9 12 13 14 15 
 16 17 18 19 21 22 23 25 26 27 28 29 
 30 31 32 33 34 35 36 37 38 39 40 41 
 43 44 45 46 47 48 50 51 53 54 56 57 
 58 60 62 63 64 66 
 63 
 1 2 3 4 5 6 7 8 9 10 11 13 
 14 15 16 17 18 19 20 21 22 24 25 26 
 27 28 29 30 32 33 34 35 36 37 38 39 
 40 41 42 43 44 45 46 47 48 49 50 51 
 52 53 54 55 56 57 58 59 60 61 62 64 
 65 66 67 
 32 
 1 3 5 7 8 9 11 13 15 16 17 18 
 19 20 27 31 32 34 36 37 41 43 47 49 
 51 55 56 58 60 61 62 67 
 55 
 1 2 3 4 5 6 9 11 12 13 14 15 
 16 17 18 19 21 22 23 24 25 26 28 29 
 30 32 33 34 35 36 38 39 40 41 43 44 
 45 46 47 49 50 51 52 54 55 56 57 58 
 59 61 62 63 64 65 66 
 31 
 1 6 7 9 10 13 16 18 21 23 24 25 
 27 28 34 37 40 41 43 44 45 46 47 49 
 50 51 52 57 59 63 65 
 36 
 1 4 5 9 10 12 14 16 19 22 23 24 
 25 26 27 30 31 32 35 37 39 40 43 44 
 45 46 49 50 51 52 53 58 62 63 64 67 
 33 
 1 5 6 7 8 9 11 14 16 17 19 20 
 23 27 29 32 34 35 40 45 46 47 51 52 
 53 54 55 56 58 62 63 65 67 
 23 
 3 4 7 9 15 16 21 23 25 26 28 34 
 35 44 45 48 49 50 53 57 58 63 67 
 23 
 1 2 7 8 11 13 17 20 21 23 24 33 
 34 36 43 44 45 46 48 49 56 58 66 
 31 
 1 7 8 11 12 17 18 19 22 25 27 30 
 31 32 37 38 40 41 43 49 51 53 54 55 
 56 57 59 60 61 63 65 
 56 
 1 3 4 5 6 7 8 9 10 11 12 14 
 15 16 17 19 20 21 22 23 25 27 28 30 
 31 32 34 35 36 37 38 39 40 41 42 43 
 44 45 46 47 48 49 50 51 52 53 54 55 
 56 57 58 59 60 64 65 66 
 20 
 2 8 13 16 18 21 24 26 27 28 32 34 
 36 37 46 48 49 50 54 67 
 54 
 2 3 4 5 6 7 8 9 10 11 12 13 
 14 15 18 19 20 21 22 23 25 26 27 28 
 30 31 32 33 35 36 37 38 39 40 41 43 
 44 45 46 47 48 49 50 51 52 55 56 57 
 59 60 61 62 63 66 
 5 
 18 54 59 64 65 
 9 
 1 19 30 35 41 44 54 61 63 
 56 
 2 4 5 6 7 8 9 10 11 12 13 14 
 15 17 18 21 22 24 25 26 28 29 31 32 
 33 34 35 36 38 40 41 42 43 44 45 46 
 47 48 49 50 51 52 53 54 55 56 57 58 
 59 60 61 62 63 64 66 67 
 24 
 1 3 7 8 10 11 13 15 26 27 31 34 
 37 47 48 54 55 58 60 61 62 63 64 65 
 33 
 4 6 7 9 12 13 14 15 16 19 20 23 
 26 31 33 37 38 39 40 42 43 44 45 47 
 48 50 52 55 59 61 63 64 65 
 44 
 2 6 7 8 9 10 12 14 16 17 18 19 
 20 22 23 24 25 27 28 31 32 33 36 39 
 40 41 42 44 46 47 48 49 52 53 55 57 
 58 60 62 63 64 65 66 67 
 38 
 1 2 3 4 6 7 11 12 13 14 16 17 
 18 19 21 24 27 28 29 30 32 34 36 37 
 39 41 43 44 45 47 48 51 52 53 56 59 
 62 66 
 5 
 2 10 16 26 61 
 25 
 4 6 8 10 12 13 22 28 29 30 33 39 
 41 42 44 46 48 49 51 53 55 56 57 58 
 59 
 7 
 2 8 21 25 27 28 62 
 43 
 1 2 5 6 8 9 10 11 12 13 15 17 
 19 21 22 23 26 27 31 32 33 34 35 38 
 41 42 44 45 46 47 50 51 53 54 55 56 
 57 58 59 61 63 64 67 
 41 
 3 5 8 9 15 17 18 20 21 22 24 25 
 26 28 29 30 31 32 34 35 36 37 39 41 
 43 44 45 46 47 48 49 50 51 53 54 55 
 57 63 64 65 67 
 67 
 1 2 3 4 5 6 7 8 9 10 11 12 
 13 14 15 16 17 18 19 20 21 22 23 24 
 25 26 27 28 29 30 31 32 33 34 35 36 
 37 38 39 40 41 42 43 44 45 46 47 48 
 49 50 51 52 53 54 55 56 57 58 59 60 
 61 62 63 64 65 66 67 
 55 
 1 2 3 4 5 6 7 8 9 10 11 12 
 13 14 15 16 17 18 19 22 23 24 26 27 
 28 29 30 31 32 34 35 38 39 41 42 43 
 44 45 46 48 49 50 51 53 54 55 56 58 
 59 61 62 64 65 66 67 
 5 
 25 29 36 43 45 
 63 
 1 2 3 4 5 6 7 9 10 11 12 13 
 15 16 17 18 19 20 21 22 23 24 25 26 
 27 28 29 30 32 33 34 35 36 37 38 39 
 40 42 43 44 45 46 47 48 49 50 51 52 
 53 54 55 56 57 58 59 60 61 62 63 64 
 65 66 67 
 20 
 7 12 15 16 20 23 26 27 32 34 40 41 
 44 45 46 52 53 54 60 66 
 64 
 1 2 3 4 5 6 7 8 9 10 11 12 
 13 14 15 16 17 18 19 20 21 22 23 24 
 25 26 27 28 29 31 32 33 34 35 36 37 
 38 39 40 41 42 43 44 45 46 47 48 49 
 50 51 52 53 54 55 56 57 59 60 61 62 
 63 65 66 67 
 59 
 1 2 3 4 5 6 7 8 9 10 13 14 
 15 16 17 19 20 21 22 23 24 25 26 27 
 29 30 32 33 34 35 36 37 39 40 41 42 
 43 44 45 46 47 48 49 50 51 53 54 55 
 56 58 59 60 61 62 63 64 65 66 67 
 62 
 1 2 3 4 5 6 7 8 9 10 11 12 
 13 15 16 17 18 19 20 21 22 23 24 25 
 26 27 28 29 30 31 32 34 35 36 38 39 
 40 41 42 43 44 45 46 47 48 50 51 52 
 53 54 55 56 57 58 59 60 61 63 64 65 
 66 67 
 32 
 3 4 10 12 17 19 21 22 23 24 25 26 
 30 34 35 36 39 41 44 45 48 52 53 55 
 56 58 61 62 64 65 66 67 
 39 
 2 4 7 8 9 12 13 16 18 19 20 21 
 23 24 26 27 28 29 30 32 33 34 36 38 
 42 45 47 48 52 53 54 55 58 59 62 64 
 65 66 67 
 35 
 2 5 7 10 13 14 15 16 19 20 21 22 
 23 24 25 27 28 30 31 32 34 36 46 47 
 48 49 53 54 55 56 58 62 63 65 67 
 21 
 2 4 5 9 13 18 21 22 25 26 28 29 
 32 34 35 39 45 46 49 64 66 
 23 
 2 3 11 16 17 22 24 34 37 38 40 42 
 43 48 54 55 57 59 63 64 65 66 67 
 61 
 1 2 3 4 5 6 7 8 9 10 11 12 
 14 15 16 17 18 19 20 21 22 23 24 25 
 26 27 28 29 30 31 32 33 34 35 36 37 
 38 39 40 43 44 45 46 47 49 50 52 53 
 54 55 56 57 58 59 60 61 62 64 65 66 
 67 
 54 
 2 3 4 5 6 7 8 9 12 13 14 15 
 17 18 19 20 21 24 25 26 27 28 29 30 
 31 32 34 35 36 38 39 41 42 43 44 46 
 48 49 50 53 54 55 56 57 58 59 60 61 
 62 63 64 65 66 67 
 62 
 1 2 3 4 5 6 7 8 9 10 11 12 
 13 14 15 16 17 18 19 20 21 22 23 24 
 25 27 28 29 30 31 33 34 35 36 37 38 
 39 40 41 42 43 44 45 46 47 48 49 50 
 51 52 54 55 56 57 58 59 61 62 63 64 
 66 67 
 36 
 2 8 16 17 18 19 23 24 26 27 30 31 
 33 34 35 37 41 43 44 45 47 48 49 52 
 53 54 55 57 60 61 62 63 64 65 66 67 
 22 
 1 2 3 4 5 7 14 19 29 31 32 37 
 42 44 47 49 54 59 60 61 62 63 
 3 
 11 23 44 
 53 
 1 2 3 5 6 7 8 9 11 12 13 14 
 16 18 19 20 21 22 23 24 26 27 28 29 
 31 32 33 34 36 37 39 40 41 42 43 44 
 46 47 48 49 50 51 52 53 55 56 57 59 
 60 61 62 66 67 
 53 
 1 2 3 4 5 6 8 9 11 12 13 14 
 16 17 18 20 21 22 23 24 25 26 27 28 
 29 30 31 32 33 34 35 36 38 39 40 41 
 42 43 44 45 46 48 51 52 54 57 58 59 
 61 62 63 64 67 
 22 
 1 2 4 8 10 12 13 18 19 21 30 34 
 37 38 42 44 50 54 56 57 61 62 
 14 
 11 17 24 26 31 34 37 39 43 45 55 56 
 61 65 
 56 
 1 2 4 5 6 7 9 10 11 12 13 14 
 15 16 18 19 20 21 22 23 24 25 26 27 
 28 29 31 32 34 35 36 38 41 42 43 44 
 46 47 48 49 50 51 52 53 54 57 58 59 
 60 61 62 63 64 65 66 67 
 17 
 3 8 19 21 29 30 37 38 46 49 52 56 
 57 58 61 62 64 
 60 
 1 3 5 6 8 9 10 11 12 13 14 15 
 16 17 19 20 21 23 24 25 26 27 28 29 
 30 31 32 33 34 35 36 37 38 39 40 41 
 42 43 44 45 46 48 49 50 51 52 53 54 
 55 56 58 59 60 61 62 63 64 65 66 67 
 42 
 1 2 5 6 7 9 15 17 19 20 21 22 
 23 24 25 26 27 28 29 30 31 32 34 35 
 36 37 40 41 44 45 46 47 48 49 50 52 
 53 56 57 59 65 66 
 55 
 1 4 5 6 7 8 9 10 11 12 13 14 
 15 17 18 19 20 22 23 24 25 26 27 28 
 29 30 31 32 33 34 36 37 38 40 41 42 
 43 44 45 46 47 49 50 52 54 55 56 57 
 60 61 62 63 64 65 67 
 48 
 1 4 5 7 8 12 13 15 16 20 21 22 
 23 24 25 26 27 28 29 31 34 35 36 37 
 39 41 42 43 45 46 47 48 49 51 52 53 
 55 56 57 59 60 61 62 63 64 65 66 67 
 16 
 1 6 13 14 24 30 32 34 37 38 39 45 
 56 60 61 65 
 54 
 1 2 3 6 7 8 9 10 11 12 14 15 
 16 19 22 25 26 27 28 29 30 31 32 34 
 35 37 39 40 41 42 43 44 45 46 47 48 
 49 50 51 52 53 54 55 56 57 58 60 61 
 62 63 64 65 66 67 
 32 
 1 2 3 4 5 8 11 15 16 20 21 22 
 24 25 26 27 29 31 33 34 35 43 44 45 
 47 49 51 54 55 56 59 66 
 67 
 1 2 3 4 5 6 7 8 9 10 11 12 
 13 14 15 16 17 18 19 20 21 22 23 24 
 25 26 27 28 29 30 31 32 33 34 35 36 
 37 38 39 40 41 42 43 44 45 46 47 48 
 49 50 51 52 53 54 55 56 57 58 59 60 
 61 62 63 64 65 66 67 
 41 
 1 2 3 4 7 15 17 18 20 21 23 25 
 26 27 28 29 30 31 32 34 38 39 40 42 
 43 44 45 47 48 50 51 53 54 56 58 59 
 61 62 63 64 67 
 15 
 4 9 19 21 32 38 40 43 48 50 51 54 
 55 57 63 
 30 
 1 4 5 9 11 12 17 18 22 23 24 26 
 32 34 39 40 42 43 44 45 52 53 56 59 
 61 62 63 64 65 66 
 37 
 1 2 5 7 11 13 14 15 20 21 22 24 
 25 26 29 30 31 33 36 37 40 41 42 45 
 49 50 51 53 54 55 56 58 60 62 63 66 
 67 
 11 
 6 12 22 27 29 35 43 54 55 58 60 
 32 
 3 5 7 16 17 18 20 23 26 28 30 32 
 33 34 36 37 40 41 42 47 48 49 52 55 
 56 57 59 60 61 63 66 67 
 15 
 1 3 5 16 19 23 26 32 33 37 39 47 
 49 50 65 
 64 
 1 2 3 4 5 7 8 9 10 11 12 13 
 14 15 16 17 18 19 20 21 22 23 24 25 
 26 27 28 29 30 31 32 33 34 35 36 37 
 38 39 40 41 42 43 44 47 48 49 50 51 
 52 53 54 55 56 57 58 59 60 61 62 63 
 64 65 66 67 
 20 
 1 2 6 9 15 17 23 25 30 36 44 47 
 50 52 58 60 61 63 64 67 
 39 
 1 2 5 9 10 12 13 14 15 16 18 19 
 22 23 24 26 28 29 32 33 34 35 36 37 
 39 40 41 43 46 48 50 51 54 56 60 62 
 63 65 67 
 11 
 1 5 6 8 10 23 34 37 39 64 67 
 